25
    1     6     6
    2    12    12
    3     6     6
    4    13    13
    5    20    20
    6    10    10
    7    17    17
    8     2     2
    9    14    14
   10     8     8
   11    16    16
   12    11    11
   13    19    19
   14     8     8
   15    14    14
   16     2     2
   17    15    15
   18     5     5
   19    16    16
   20     5     5
   21    14    14
   22    13    13
   23    17    17
   24    13    13
   25    18    18
34
